objective value:                                10332
t_x_1                                               1 	(obj:18)
t_x_2                                               1 	(obj:2)
t_x_6                                               1 	(obj:11)
t_x_12                                              1 	(obj:38)
t_x_13                                              1 	(obj:33)
t_x_14                                              1 	(obj:3)
t_x_17                                              1 	(obj:34)
t_x_18                                              1 	(obj:64)
t_x_21                                              1 	(obj:25)
t_x_22                                              1 	(obj:36)
t_x_24                                              1 	(obj:4)
t_x_25                                              1 	(obj:33)
t_x_28                                              1 	(obj:34)
t_x_31                                              1 	(obj:12)
t_x_34                                              1 	(obj:7)
t_x_37                                              1 	(obj:39)
t_x_41                                              1 	(obj:13)
t_x_44                                              1 	(obj:29)
t_x_45                                              1 	(obj:9)
t_x_48                                              1 	(obj:15)
t_x_53                                              1 	(obj:7)
t_x_56                                              1 	(obj:23)
t_x_65                                              1 	(obj:38)
t_x_70                                              1 	(obj:8)
t_x_71                                              1 	(obj:31)
t_x_74                                              1 	(obj:10)
t_x_75                                              1 	(obj:27)
t_x_77                                              1 	(obj:11)
t_x_78                                              1 	(obj:10)
t_x_81                                              1 	(obj:28)
t_x_87                                              1 	(obj:34)
t_x_92                                              1 	(obj:15)
t_x_94                                              1 	(obj:30)
t_x_95                                              1 	(obj:3)
t_x_99                                              1 	(obj:15)
t_x_108                                             1 	(obj:38)
t_x_110                                             1 	(obj:31)
t_x_112                                             1 	(obj:14)
t_x_115                                             1 	(obj:22)
t_x_121                                             1 	(obj:18)
t_x_123                                             1 	(obj:16)
t_x_128                                             1 	(obj:18)
t_x_130                                             1 	(obj:13)
t_x_133                                             1 	(obj:6)
t_x_134                                             1 	(obj:3)
t_x_135                                             1 	(obj:0)
t_x_138                                             1 	(obj:38)
t_x_140                                             1 	(obj:15)
t_x_150                                             1 	(obj:15)
t_x_152                                             1 	(obj:19)
t_x_153                                             1 	(obj:29)
t_x_155                                             1 	(obj:53)
t_x_161                                             1 	(obj:25)
t_x_163                                             1 	(obj:21)
t_x_168                                             1 	(obj:5)
t_x_174                                             1 	(obj:45)
t_x_177                                             1 	(obj:4)
t_x_178                                             1 	(obj:16)
t_x_181                                             1 	(obj:26)
t_x_186                                             1 	(obj:8)
t_x_189                                             1 	(obj:20)
t_x_191                                             1 	(obj:6)
t_x_192                                             1 	(obj:9)
t_x_193                                             1 	(obj:9)
t_x_194                                             1 	(obj:8)
t_x_199                                             1 	(obj:26)
t_x_203                                             1 	(obj:4)
t_x_204                                             1 	(obj:14)
t_x_205                                             1 	(obj:10)
t_x_210                                             1 	(obj:0)
t_x_216                                             1 	(obj:15)
t_x_217                                             1 	(obj:6)
t_x_219                                             1 	(obj:19)
t_x_222                                             1 	(obj:6)
t_x_224                                             1 	(obj:21)
t_x_225                                             1 	(obj:17)
t_x_226                                             1 	(obj:33)
t_x_230                                             1 	(obj:9)
t_x_231                                             1 	(obj:2)
t_x_235                                             1 	(obj:27)
t_x_237                                             1 	(obj:19)
t_x_238                                             1 	(obj:8)
t_x_239                                             1 	(obj:9)
t_x_240                                             1 	(obj:17)
t_x_250                                             1 	(obj:2)
t_x_255                                             1 	(obj:21)
t_x_256                                             1 	(obj:14)
t_x_258                                             1 	(obj:40)
t_x_263                                             1 	(obj:46)
t_x_269                                             1 	(obj:38)
t_x_270                                             1 	(obj:15)
t_x_271                                             1 	(obj:49)
t_x_275                                             1 	(obj:11)
t_x_281                                             1 	(obj:32)
t_x_283                                             1 	(obj:12)
t_x_284                                             1 	(obj:4)
t_x_288                                             1 	(obj:36)
t_x_293                                             1 	(obj:48)
t_x_295                                             1 	(obj:5)
t_x_299                                             1 	(obj:50)
t_x_308                                             1 	(obj:24)
t_x_312                                             1 	(obj:2)
t_x_314                                             1 	(obj:9)
t_x_320                                             1 	(obj:41)
t_x_321                                             1 	(obj:22)
t_x_322                                             1 	(obj:20)
t_x_324                                             1 	(obj:0)
t_x_330                                             1 	(obj:16)
t_x_335                                             1 	(obj:15)
t_x_337                                             1 	(obj:6)
t_x_338                                             1 	(obj:14)
t_x_339                                             1 	(obj:2)
t_x_341                                             1 	(obj:8)
t_x_343                                             1 	(obj:7)
t_x_344                                             1 	(obj:1)
t_x_365                                             1 	(obj:25)
t_x_372                                             1 	(obj:18)
t_x_373                                             1 	(obj:11)
t_x_374                                             1 	(obj:20)
t_x_380                                             1 	(obj:4)
t_x_385                                             1 	(obj:16)
t_x_394                                             1 	(obj:7)
t_x_398                                             1 	(obj:7)
t_x_399                                             1 	(obj:6)
t_x_404                                             1 	(obj:15)
t_x_406                                             1 	(obj:15)
t_x_407                                             1 	(obj:52)
t_x_409                                             1 	(obj:10)
t_x_415                                             1 	(obj:13)
t_x_416                                             1 	(obj:0)
t_x_421                                             1 	(obj:26)
t_x_423                                             1 	(obj:13)
t_x_427                                             1 	(obj:17)
t_x_429                                             1 	(obj:14)
t_x_433                                             1 	(obj:25)
t_x_436                                             1 	(obj:21)
t_x_437                                             1 	(obj:1)
t_x_438                                             1 	(obj:11)
t_x_440                                             1 	(obj:39)
t_x_444                                             1 	(obj:2)
t_x_445                                             1 	(obj:58)
t_x_446                                             1 	(obj:6)
t_x_451                                             1 	(obj:39)
t_x_453                                             1 	(obj:50)
t_x_456                                             1 	(obj:5)
t_x_459                                             1 	(obj:30)
t_x_463                                             1 	(obj:10)
t_x_469                                             1 	(obj:15)
t_x_474                                             1 	(obj:22)
t_x_475                                             1 	(obj:2)
t_x_476                                             1 	(obj:7)
t_x_484                                             1 	(obj:14)
t_x_486                                             1 	(obj:25)
t_x_491                                             1 	(obj:3)
t_x_493                                             1 	(obj:3)
t_x_501                                             1 	(obj:7)
t_x_502                                             1 	(obj:9)
t_x_503                                             1 	(obj:44)
t_x_505                                             1 	(obj:34)
t_x_506                                             1 	(obj:6)
t_x_507                                             1 	(obj:1)
t_x_515                                             1 	(obj:8)
t_x_519                                             1 	(obj:3)
t_x_521                                             1 	(obj:32)
t_x_523                                             1 	(obj:44)
t_x_527                                             1 	(obj:3)
t_x_528                                             1 	(obj:1)
t_x_536                                             1 	(obj:67)
t_x_538                                             1 	(obj:27)
t_x_539                                             1 	(obj:6)
t_x_546                                             1 	(obj:20)
t_x_556                                             1 	(obj:42)
t_x_563                                             1 	(obj:1)
t_x_564                                             1 	(obj:15)
t_x_572                                             1 	(obj:5)
t_x_581                                             1 	(obj:23)
t_x_585                                             1 	(obj:1)
t_x_590                                             1 	(obj:17)
t_x_598                                             1 	(obj:32)
t_x_603                                             1 	(obj:12)
t_x_604                                             1 	(obj:24)
t_x_606                                             1 	(obj:24)
t_x_607                                             1 	(obj:20)
t_x_610                                             1 	(obj:37)
t_x_613                                             1 	(obj:15)
t_x_618                                             1 	(obj:3)
t_x_625                                             1 	(obj:21)
t_x_628                                             1 	(obj:34)
t_x_632                                             1 	(obj:18)
t_x_633                                             1 	(obj:8)
t_x_636                                             1 	(obj:15)
t_x_642                                             1 	(obj:8)
t_x_645                                             1 	(obj:8)
t_x_650                                             1 	(obj:45)
t_x_651                                             1 	(obj:31)
t_x_654                                             1 	(obj:9)
t_x_656                                             1 	(obj:9)
t_x_658                                             1 	(obj:6)
t_x_662                                             1 	(obj:21)
t_x_664                                             1 	(obj:42)
t_x_665                                             1 	(obj:15)
t_x_671                                             1 	(obj:14)
t_x_674                                             1 	(obj:7)
t_x_679                                             1 	(obj:39)
t_x_686                                             1 	(obj:10)
t_x_691                                             1 	(obj:6)
t_x_692                                             1 	(obj:14)
t_x_696                                             1 	(obj:26)
t_x_708                                             1 	(obj:1)
t_x_710                                             1 	(obj:10)
t_x_711                                             1 	(obj:13)
t_x_712                                             1 	(obj:49)
t_x_720                                             1 	(obj:11)
t_x_724                                             1 	(obj:4)
t_x_730                                             1 	(obj:4)
t_x_739                                             1 	(obj:21)
t_x_740                                             1 	(obj:12)
t_x_745                                             1 	(obj:45)
t_x_748                                             1 	(obj:12)
t_x_751                                             1 	(obj:19)
t_x_752                                             1 	(obj:12)
t_x_753                                             1 	(obj:34)
t_x_762                                             1 	(obj:7)
t_x_766                                             1 	(obj:2)
t_x_770                                             1 	(obj:49)
t_x_775                                             1 	(obj:9)
t_x_776                                             1 	(obj:28)
t_x_779                                             1 	(obj:12)
t_x_782                                             1 	(obj:12)
t_x_793                                             1 	(obj:2)
t_x_798                                             1 	(obj:7)
t_x_801                                             1 	(obj:1)
t_x_807                                             1 	(obj:20)
t_x_808                                             1 	(obj:7)
t_x_809                                             1 	(obj:13)
t_x_815                                             1 	(obj:6)
t_x_823                                             1 	(obj:17)
t_x_831                                             1 	(obj:0)
t_x_832                                             1 	(obj:7)
t_x_833                                             1 	(obj:19)
t_x_835                                             1 	(obj:31)
t_x_837                                             1 	(obj:1)
t_x_848                                             1 	(obj:0)
t_x_854                                             1 	(obj:10)
t_x_855                                             1 	(obj:5)
t_x_858                                             1 	(obj:10)
t_x_872                                             1 	(obj:15)
t_x_876                                             1 	(obj:5)
t_x_879                                             1 	(obj:14)
t_x_881                                             1 	(obj:8)
t_x_883                                             1 	(obj:22)
t_x_888                                             1 	(obj:4)
t_x_889                                             1 	(obj:27)
t_x_893                                             1 	(obj:40)
t_x_894                                             1 	(obj:4)
t_x_895                                             1 	(obj:0)
t_x_897                                             1 	(obj:6)
t_x_899                                             1 	(obj:5)
t_x_903                                             1 	(obj:39)
t_x_906                                             1 	(obj:25)
t_x_908                                             1 	(obj:34)
t_x_909                                             1 	(obj:22)
t_x_922                                             1 	(obj:0)
t_x_923                                             1 	(obj:5)
t_x_924                                             1 	(obj:12)
t_x_931                                             1 	(obj:3)
t_x_934                                             1 	(obj:20)
t_x_936                                             1 	(obj:2)
t_x_938                                             1 	(obj:12)
t_x_944                                             1 	(obj:12)
t_x_951                                             1 	(obj:41)
t_x_956                                             1 	(obj:37)
t_x_965                                             1 	(obj:1)
t_x_966                                             1 	(obj:5)
t_x_968                                             1 	(obj:40)
t_x_974                                             1 	(obj:4)
t_x_976                                             1 	(obj:14)
t_x_977                                             1 	(obj:2)
t_x_980                                             1 	(obj:23)
t_x_981                                             1 	(obj:52)
t_x_984                                             1 	(obj:5)
t_x_991                                             1 	(obj:21)
t_x_998                                             1 	(obj:6)
t_x_1001                                            1 	(obj:6)
t_x_1003                                            1 	(obj:40)
t_x_1008                                            1 	(obj:21)
t_x_1010                                            1 	(obj:11)
t_x_1012                                            1 	(obj:1)
t_x_1013                                            1 	(obj:14)
t_x_1014                                            1 	(obj:16)
t_x_1015                                            1 	(obj:49)
t_x_1016                                            1 	(obj:16)
t_x_1021                                            1 	(obj:37)
t_x_1022                                            1 	(obj:1)
t_x_1023                                            1 	(obj:6)
t_x_1024                                            1 	(obj:12)
t_x_1028                                            1 	(obj:32)
t_x_1029                                            1 	(obj:15)
t_x_1030                                            1 	(obj:4)
t_x_1034                                            1 	(obj:13)
t_x_1044                                            1 	(obj:22)
t_x_1053                                            1 	(obj:19)
t_x_1054                                            1 	(obj:24)
t_x_1057                                            1 	(obj:8)
t_x_1067                                            1 	(obj:18)
t_x_1070                                            1 	(obj:26)
t_x_1088                                            1 	(obj:14)
t_x_1089                                            1 	(obj:38)
t_x_1095                                            1 	(obj:43)
t_x_1099                                            1 	(obj:1)
t_x_1100                                            1 	(obj:0)
t_x_1102                                            1 	(obj:26)
t_x_1107                                            1 	(obj:10)
t_x_1117                                            1 	(obj:54)
t_x_1121                                            1 	(obj:3)
t_x_1123                                            1 	(obj:7)
t_x_1125                                            1 	(obj:55)
t_x_1126                                            1 	(obj:8)
t_x_1129                                            1 	(obj:26)
t_x_1130                                            1 	(obj:0)
t_x_1137                                            1 	(obj:17)
t_x_1141                                            1 	(obj:3)
t_x_1144                                            1 	(obj:24)
t_x_1146                                            1 	(obj:9)
t_x_1153                                            1 	(obj:9)
t_x_1154                                            1 	(obj:36)
t_x_1159                                            1 	(obj:14)
t_x_1160                                            1 	(obj:13)
t_x_1163                                            1 	(obj:27)
t_x_1167                                            1 	(obj:5)
t_x_1173                                            1 	(obj:24)
t_x_1174                                            1 	(obj:37)
t_x_1178                                            1 	(obj:11)
t_x_1179                                            1 	(obj:9)
t_x_1181                                            1 	(obj:7)
t_x_1184                                            1 	(obj:67)
t_x_1185                                            1 	(obj:0)
t_x_1187                                            1 	(obj:26)
t_x_1193                                            1 	(obj:28)
t_x_1194                                            1 	(obj:3)
t_x_1197                                            1 	(obj:46)
t_x_1204                                            1 	(obj:32)
t_x_1205                                            1 	(obj:23)
t_x_1206                                            1 	(obj:2)
t_x_1209                                            1 	(obj:22)
t_x_1210                                            1 	(obj:20)
t_x_1214                                            1 	(obj:2)
t_x_1215                                            1 	(obj:10)
t_x_1216                                            1 	(obj:20)
t_x_1217                                            1 	(obj:43)
t_x_1224                                            1 	(obj:14)
t_x_1225                                            1 	(obj:2)
t_x_1233                                            1 	(obj:14)
t_x_1234                                            1 	(obj:16)
t_x_1241                                            1 	(obj:22)
t_x_1250                                            1 	(obj:10)
t_x_1253                                            1 	(obj:30)
t_x_1262                                            1 	(obj:30)
t_x_1265                                            1 	(obj:23)
t_x_1266                                            1 	(obj:7)
t_x_1267                                            1 	(obj:20)
t_x_1269                                            1 	(obj:0)
t_x_1272                                            1 	(obj:17)
t_x_1278                                            1 	(obj:5)
t_x_1280                                            1 	(obj:16)
t_x_1282                                            1 	(obj:11)
t_x_1283                                            1 	(obj:14)
t_x_1286                                            1 	(obj:1)
t_x_1290                                            1 	(obj:2)
t_x_1294                                            1 	(obj:7)
t_x_1302                                            1 	(obj:3)
t_x_1303                                            1 	(obj:21)
t_x_1315                                            1 	(obj:33)
t_x_1318                                            1 	(obj:35)
t_x_1324                                            1 	(obj:16)
t_x_1325                                            1 	(obj:16)
t_x_1326                                            1 	(obj:12)
t_x_1327                                            1 	(obj:13)
t_x_1330                                            1 	(obj:15)
t_x_1332                                            1 	(obj:22)
t_x_1334                                            1 	(obj:9)
t_x_1339                                            1 	(obj:58)
t_x_1347                                            1 	(obj:10)
t_x_1349                                            1 	(obj:25)
t_x_1350                                            1 	(obj:2)
t_x_1354                                            1 	(obj:7)
t_x_1356                                            1 	(obj:22)
t_x_1357                                            1 	(obj:17)
t_x_1358                                            1 	(obj:12)
t_x_1361                                            1 	(obj:17)
t_x_1363                                            1 	(obj:42)
t_x_1375                                            1 	(obj:28)
t_x_1380                                            1 	(obj:7)
t_x_1382                                            1 	(obj:19)
t_x_1385                                            1 	(obj:5)
t_x_1387                                            1 	(obj:36)
t_x_1388                                            1 	(obj:11)
t_x_1389                                            1 	(obj:28)
t_x_1391                                            1 	(obj:22)
t_x_1396                                            1 	(obj:2)
t_x_1398                                            1 	(obj:31)
t_x_1399                                            1 	(obj:16)
t_x_1407                                            1 	(obj:9)
t_x_1408                                            1 	(obj:14)
t_x_1409                                            1 	(obj:0)
t_x_1413                                            1 	(obj:3)
t_x_1414                                            1 	(obj:14)
t_x_1416                                            1 	(obj:17)
t_x_1417                                            1 	(obj:18)
t_x_1418                                            1 	(obj:11)
t_x_1419                                            1 	(obj:8)
t_x_1421                                            1 	(obj:24)
t_x_1423                                            1 	(obj:20)
t_x_1426                                            1 	(obj:25)
t_x_1428                                            1 	(obj:2)
t_x_1434                                            1 	(obj:21)
t_x_1435                                            1 	(obj:8)
t_x_1437                                            1 	(obj:12)
t_x_1439                                            1 	(obj:5)
t_x_1452                                            1 	(obj:20)
t_x_1454                                            1 	(obj:36)
t_x_1455                                            1 	(obj:10)
t_x_1457                                            1 	(obj:18)
t_x_1458                                            1 	(obj:17)
t_x_1470                                            1 	(obj:14)
t_x_1471                                            1 	(obj:14)
t_x_1480                                            1 	(obj:3)
t_x_1484                                            1 	(obj:13)
t_x_1492                                            1 	(obj:10)
t_x_1497                                            1 	(obj:49)
t_x_1498                                            1 	(obj:15)
t_x_1502                                            1 	(obj:15)
t_x_1503                                            1 	(obj:11)
t_x_1504                                            1 	(obj:24)
t_x_1508                                            1 	(obj:13)
t_x_1510                                            1 	(obj:39)
t_x_1517                                            1 	(obj:1)
t_x_1519                                            1 	(obj:9)
t_x_1521                                            1 	(obj:4)
t_x_1523                                            1 	(obj:26)
t_x_1525                                            1 	(obj:38)
t_x_1529                                            1 	(obj:57)
t_x_1531                                            1 	(obj:7)
t_x_1532                                            1 	(obj:1)
t_x_1534                                            1 	(obj:51)
t_x_1536                                            1 	(obj:12)
t_x_1537                                            1 	(obj:1)
t_x_1538                                            1 	(obj:25)
t_x_1543                                            1 	(obj:35)
t_x_1548                                            1 	(obj:9)
t_x_1549                                            1 	(obj:19)
t_x_1551                                            1 	(obj:25)
t_x_1553                                            1 	(obj:7)
t_x_1554                                            1 	(obj:13)
t_x_1555                                            1 	(obj:12)
t_x_1560                                            1 	(obj:11)
t_x_1580                                            1 	(obj:20)
t_x_1581                                            1 	(obj:5)
t_x_1583                                            1 	(obj:29)
t_x_1588                                            1 	(obj:17)
t_x_1591                                            1 	(obj:8)
t_x_1592                                            1 	(obj:33)
t_x_1594                                            1 	(obj:4)
t_x_1597                                            1 	(obj:41)
t_x_1599                                            1 	(obj:5)
t_x_1601                                            1 	(obj:5)
t_x_1602                                            1 	(obj:14)
t_x_1603                                            1 	(obj:11)
t_x_1604                                            1 	(obj:20)
t_x_1606                                            1 	(obj:27)
t_x_1619                                            1 	(obj:2)
t_x_1620                                            1 	(obj:19)
t_x_1622                                            1 	(obj:7)
t_x_1625                                            1 	(obj:15)
t_x_1631                                            1 	(obj:60)
t_x_1636                                            1 	(obj:9)
t_x_1641                                            1 	(obj:2)
t_x_1642                                            1 	(obj:16)
t_x_1643                                            1 	(obj:26)
t_x_1648                                            1 	(obj:0)
t_x_1649                                            1 	(obj:24)
t_x_1650                                            1 	(obj:38)
t_x_1653                                            1 	(obj:11)
t_x_1654                                            1 	(obj:18)
t_x_1657                                            1 	(obj:1)
t_x_1660                                            1 	(obj:58)
t_x_1661                                            1 	(obj:5)
t_x_1670                                            1 	(obj:4)
t_x_1671                                            1 	(obj:8)
t_x_1678                                            1 	(obj:70)
t_x_1680                                            1 	(obj:16)
t_x_1689                                            1 	(obj:17)
t_x_1697                                            1 	(obj:9)
t_x_1699                                            1 	(obj:10)
t_x_1703                                            1 	(obj:28)
t_x_1705                                            1 	(obj:15)
t_x_1713                                            1 	(obj:6)
t_x_1715                                            1 	(obj:6)
t_x_1716                                            1 	(obj:30)
t_x_1718                                            1 	(obj:43)
t_x_1721                                            1 	(obj:4)
t_x_1722                                            1 	(obj:1)
t_x_1728                                            1 	(obj:18)
t_x_1730                                            1 	(obj:19)
t_x_1734                                            1 	(obj:19)
t_x_1738                                            1 	(obj:4)
t_x_1743                                            1 	(obj:45)
t_x_1744                                            1 	(obj:11)
t_x_1745                                            1 	(obj:5)
t_x_1748                                            1 	(obj:12)
t_x_1753                                            1 	(obj:12)
t_x_1759                                            1 	(obj:6)
t_x_1761                                            1 	(obj:24)
t_x_1764                                            1 	(obj:11)
t_x_1766                                            1 	(obj:23)
t_x_1767                                            1 	(obj:31)
t_x_1769                                            1 	(obj:14)
t_x_1770                                            1 	(obj:4)
t_x_1772                                            1 	(obj:69)
t_x_1782                                            1 	(obj:12)
t_x_1783                                            1 	(obj:5)
t_x_1788                                            1 	(obj:17)
t_x_1789                                            1 	(obj:9)
t_x_1790                                            1 	(obj:8)
t_x_1796                                            1 	(obj:35)
t_x_1802                                            1 	(obj:14)
t_x_1803                                            1 	(obj:3)
t_x_1806                                            1 	(obj:18)
t_x_1813                                            1 	(obj:28)
t_x_1816                                            1 	(obj:31)
t_x_1817                                            1 	(obj:10)
t_x_1818                                            1 	(obj:18)
t_x_1820                                            1 	(obj:22)
t_x_1825                                            1 	(obj:0)
t_x_1826                                            1 	(obj:9)
t_x_1833                                            1 	(obj:39)
t_x_1836                                            1 	(obj:15)
t_x_1838                                            1 	(obj:33)
t_x_1839                                            1 	(obj:16)
t_x_1840                                            1 	(obj:10)
t_x_1841                                            1 	(obj:3)
t_x_1842                                            1 	(obj:5)
t_x_1849                                            1 	(obj:27)
t_x_1852                                            1 	(obj:12)
t_x_1853                                            1 	(obj:8)
t_x_1855                                            1 	(obj:11)
t_x_1858                                            1 	(obj:17)
t_x_1861                                            1 	(obj:28)
t_x_1867                                            1 	(obj:28)
t_x_1871                                            1 	(obj:8)
t_x_1872                                            1 	(obj:21)
t_x_1873                                            1 	(obj:3)
t_x_1876                                            1 	(obj:6)
t_x_1882                                            1 	(obj:2)
t_x_1883                                            1 	(obj:7)
t_x_1884                                            1 	(obj:20)
t_x_1885                                            1 	(obj:4)
t_x_1888                                            1 	(obj:19)
t_x_1889                                            1 	(obj:6)
t_x_1891                                            1 	(obj:3)
t_x_1892                                            1 	(obj:35)
t_x_1894                                            1 	(obj:26)
t_x_1900                                            1 	(obj:39)
t_x_1901                                            1 	(obj:34)
t_x_1904                                            1 	(obj:4)
t_x_1909                                            1 	(obj:16)
t_x_1910                                            1 	(obj:14)
t_x_1911                                            1 	(obj:9)
t_x_1915                                            1 	(obj:7)
t_x_1920                                            1 	(obj:16)
t_x_1921                                            1 	(obj:8)
t_x_1922                                            1 	(obj:9)
t_x_1926                                            1 	(obj:7)
t_x_1929                                            1 	(obj:3)
t_x_1937                                            1 	(obj:23)
t_x_1953                                            1 	(obj:34)
t_x_1954                                            1 	(obj:39)
t_x_1955                                            1 	(obj:25)
t_x_1956                                            1 	(obj:14)
t_x_1957                                            1 	(obj:19)
t_x_1958                                            1 	(obj:31)
t_x_1959                                            1 	(obj:12)
t_x_1960                                            1 	(obj:6)
t_x_1963                                            1 	(obj:18)
t_x_1970                                            1 	(obj:3)
t_x_1971                                            1 	(obj:20)
t_x_1974                                            1 	(obj:32)
t_x_1987                                            1 	(obj:22)
t_x_1989                                            1 	(obj:5)
t_x_1995                                            1 	(obj:15)
t_x_1996                                            1 	(obj:1)
t_x_1999                                            1 	(obj:53)
